(declare-const x.Top@pos Int)
(declare-const term_to_project_onto0 Real)
(declare-const term_to_project_onto1 Real)
(declare-const w Real)
(declare-const x.Top@width Int)
(declare-const term_to_project_onto4 Real)
(declare-const term_to_project_onto3 Real)
(declare-const term_to_project_onto2 Real)
(declare-const term_to_project_onto Real)
(declare-const j Int)
(declare-const x.Top Int)
(assert (exists
         ((|x.Top@width'?1| Int) (|x.Top@pos'?2| Int) (|x.Top'?3| Int)
            (store?4 Int) (store?5 Int) (store?6 Int) (|w'?7| Real)
            (|j'?8| Int) (K?9 Int) (|i'?10| Int) (|j'?11| Int) (|w'?12| Real)
            (tr?13 Real) (i?14 Int) (n?15 Int))
         (and (<= (- i?14) 0) (= (+ (- |j'?8|) K?9 i?14 1) 0)
                (or (and (= K?9 0) (= (+ (- |w'?7|) tr?13) 0)
                           (= (+ (- |j'?8|) i?14 1) 0))
                      (and (<= (+ (- K?9) 1) 0) (<= (- i?14) 0)
                             (<= (+ (- n?15) i?14 1) 0)
                             (<= (+ (- |j'?8|) 2) 0)
                             (<= (+ (- n?15) |j'?8| -1) 0))) (<= (- K?9) 0)
                (<= (+ (- |j'?8|) 1) 0) (<= (+ n?15 (- |j'?8|) 1) 0)
                (= (+ (- store?4) |x.Top@width'?1|) 0)
                (= (+ (- store?5) |x.Top@pos'?2|) 0)
                (= (+ |w'?12| (- |w'?7|)) 0) (= (+ |j'?11| (- |j'?8|)) 0)
                (= (+ |i'?10| (- i?14) 1) 0) (= (+ (- store?6) |x.Top'?3|) 0)
                (= term_to_project_onto4 (+ |x.Top'?3| (- x.Top)))
                (= term_to_project_onto3 (+ |i'?10| (- i?14)))
                (= term_to_project_onto2 (+ |j'?11| (- j)))
                (= term_to_project_onto1 (+ |w'?12| (- w)))
                (= term_to_project_onto0 (+ |x.Top@pos'?2| (- x.Top@pos)))
                (= term_to_project_onto (+ |x.Top@width'?1| (- x.Top@width))))))
(check-sat)
